
List of user-set options:

                                    Name   Value                used
                           compl_inf_tol = 1                     yes
                         constr_viol_tol = 1                     yes
                            dual_inf_tol = 1000                  yes
                           linear_solver = ma97                  yes
                              ma86_small = 1e-30                  no
                                  ma86_u = 0.0001                 no
                              ma97_order = best                  yes
                              ma97_small = 1e-30                 yes
                            ma97_switch1 = at_start              yes
                            ma97_switch2 = od_hd_reuse           yes
                                  ma97_u = 1e-06                 yes
                               ma97_umax = 0.5                   yes
                                max_iter = 1000                  yes
                    max_refinement_steps = 20                    yes
                    min_refinement_steps = 5                     yes
                                 mu_init = 1e-06                 yes
           mu_superlinear_decrease_power = 1.25                  yes
                   nlp_scaling_min_value = 1e-08                 yes
                        option_file_name = Preset_Case_673_pf.opt  yes
                             output_file = ./tmp/Preset_Case_673_pf.output  yes
                      print_user_options = yes                   yes
        required_infeasibility_reduction = 1                      no
                                     tol = 1e-08                 yes
                   warm_start_bound_frac = 1e-20                 yes
                   warm_start_bound_push = 1e-20                 yes
                   warm_start_init_point = yes                   yes
              warm_start_mult_bound_push = 1e-20                 yes
                warm_start_mult_init_max = 1e+40                 yes
             warm_start_slack_bound_frac = 1e-20                 yes
             warm_start_slack_bound_push = 1e-20                 yes

******************************************************************************
This program contains Ipopt, a library for large-scale nonlinear optimization.
 Ipopt is released as open source code under the Eclipse Public License (EPL).
         For more information visit http://projects.coin-or.org/Ipopt
******************************************************************************

This is Ipopt version 3.12.10, running with linear solver ma97.

Number of nonzeros in equality constraint Jacobian...:   123443
Number of nonzeros in inequality constraint Jacobian.:      213
Number of nonzeros in Lagrangian Hessian.............:    49069

Total number of variables............................:    31591
                     variables with only lower bounds:    12912
                variables with lower and upper bounds:    15130
                     variables with only upper bounds:        0
Total number of equality constraints.................:    31483
Total number of inequality constraints...............:       25
        inequality constraints with only lower bounds:        4
   inequality constraints with lower and upper bounds:        0
        inequality constraints with only upper bounds:       21

iter    objective    inf_pr   inf_du lg(mu)  ||d||  lg(rg) alpha_du alpha_pr  ls
   0 -5.2873751e+00 4.06e-03 1.02e+00  -6.0 0.00e+00    -  0.00e+00 0.00e+00   0
   1 -5.2867392e+00 1.42e-01 3.26e+00  -6.0 4.79e+05    -  6.72e-05 1.21e-04h  4
   2 -5.2883274e+00 1.41e-01 5.12e+01  -6.0 3.76e+03    -  2.25e-01 1.94e-03h  1
   3 -5.4564353e+00 1.01e+01 5.29e+02  -6.0 3.75e+03    -  1.63e-01 2.06e-01f  1
   4 -5.5280705e+00 1.72e+01 6.21e+02  -6.0 4.11e+03    -  2.08e-01 1.81e-01h  1
   5 -5.5693607e+00 1.63e+01 1.96e+05  -6.0 2.29e+03    -  1.69e-01 1.20e-01h  1
   6 -5.5926065e+00 1.08e+01 5.90e+05  -6.0 2.00e+02  -4.0 1.63e-02 3.38e-01h  1
   7 -5.6932595e+00 2.07e+01 1.82e+06  -6.0 2.12e+03    -  5.26e-03 4.78e-01h  1
   8 -5.6831865e+00 9.14e+00 1.00e+06  -6.0 2.06e+01  -4.5 9.66e-02 5.58e-01h  1
   9 -5.6748116e+00 9.34e-03 4.77e+05  -6.0 1.40e+01  -5.0 4.17e-01 1.00e+00h  1
iter    objective    inf_pr   inf_du lg(mu)  ||d||  lg(rg) alpha_du alpha_pr  ls
  10 -5.6974782e+00 2.09e-01 2.40e+05  -6.0 5.22e+01  -5.4 8.53e-02 1.00e+00h  1
  11 -5.7038756e+00 2.02e-01 2.35e+05  -6.0 9.75e+01  -5.9 1.49e-02 1.43e-01h  1
  12 -5.7821419e+00 1.97e+00 1.63e+05  -6.0 1.22e+02  -6.4 2.73e-01 1.00e+00f  1
  13 -5.7729019e+00 1.23e+00 1.17e+05  -6.0 9.51e+01  -6.9 2.81e-01 3.74e-01h  1
  14 -5.7574876e+00 5.65e-02 7.68e+04  -6.0 4.49e+01  -6.4 3.43e-01 1.00e+00h  1
  15 -5.7677887e+00 2.62e-01 2.84e+04  -6.0 1.04e+02  -6.9 6.29e-01 1.00e+00h  1
  16 -5.7696343e+00 9.85e-02 8.56e+01  -6.0 4.56e+01  -6.5 9.97e-01 6.89e-01h  1
  17 -5.7790236e+00 4.20e-01 2.69e+01  -6.0 1.52e+02  -7.0 9.05e-01 1.00e+00h  1
  18 -5.7952681e+00 2.29e+00 4.92e+01  -6.0 4.93e+02  -7.4 2.49e-01 4.34e-01h  1
  19 -5.7970454e+00 5.38e-01 1.84e+04  -6.0 1.35e+02  -7.0 6.18e-01 1.00e+00h  1
iter    objective    inf_pr   inf_du lg(mu)  ||d||  lg(rg) alpha_du alpha_pr  ls
  20 -5.8016827e+00 3.65e-01 1.37e+01  -6.0 1.12e+02  -6.6 1.00e+00 1.00e+00h  1
  21 -5.8133210e+00 1.34e+00 9.31e+01  -6.0 2.33e+02  -7.1 1.00e+00 9.08e-01h  1
  22 -5.8334205e+00 1.22e+00 3.46e+04  -6.0 2.89e+02  -7.5 6.14e-01 1.00e+00h  1
  23 -5.8599531e+00 8.74e+00 4.23e+04  -6.0 2.62e+04    -  4.66e-02 6.96e-02h  1
  24 -5.8754946e+00 8.85e+00 1.23e+05  -6.0 4.19e+03    -  5.16e-01 1.72e-01h  1
  25 -5.8853162e+00 9.07e+00 1.05e+05  -6.0 7.17e+03    -  3.41e-02 5.94e-02h  1
  26 -5.9207460e+00 7.96e+01 9.16e+04  -6.0 1.41e+04  -8.0 7.61e-03 2.82e-02h  1
  27 -5.9233275e+00 7.83e+01 3.98e+05  -6.0 3.19e+03    -  6.08e-01 1.56e-02h  1
  28 -5.9228130e+00 7.66e+01 4.11e+05  -6.0 1.41e+04    -  5.53e-02 8.80e-03h  3
  29 -5.9337544e+00 6.87e+01 4.36e+05  -6.0 2.82e+03    -  3.96e-01 9.13e-02h  1
iter    objective    inf_pr   inf_du lg(mu)  ||d||  lg(rg) alpha_du alpha_pr  ls
  30 -5.9521383e+00 5.51e+01 4.10e+05  -6.0 1.32e+03    -  3.72e-01 1.85e-01h  1
  31 -5.9545827e+00 5.35e+01 5.64e+05  -6.0 1.48e+03    -  3.26e-01 2.78e-02h  1
  32 -6.0000484e+00 1.40e+01 4.08e+05  -6.0 1.47e+03    -  1.00e+00 6.23e-01h  1
  33r-6.0000484e+00 1.40e+01 1.00e+03   0.6 0.00e+00    -  0.00e+00 3.30e-07R  2
  34r-6.0092387e+00 1.40e+01 1.09e+03   0.6 2.01e+04    -  1.65e-06 6.28e-07f  1
  35 -6.0089882e+00 1.39e+01 1.11e+05  -6.0 1.76e+01    -  8.08e-02 1.19e-02h  1
  36 -6.0061249e+00 1.29e+01 8.05e+05  -6.0 1.56e+01    -  8.38e-03 7.27e-02h  1
  37 -5.9945258e+00 8.85e+00 6.71e+05  -6.0 1.46e+01    -  6.03e-02 3.14e-01h  1
  38 -5.9800082e+00 3.65e+00 2.89e+05  -6.0 1.17e+01    -  3.73e-02 5.94e-01h  1
  39 -5.9798970e+00 3.45e+00 2.70e+05  -6.0 6.10e+00    -  3.16e-01 5.50e-02h  1
iter    objective    inf_pr   inf_du lg(mu)  ||d||  lg(rg) alpha_du alpha_pr  ls
  40 -5.9830104e+00 2.16e+00 1.66e+05  -6.0 6.66e+00    -  7.59e-01 3.74e-01h  1
  41 -5.9843997e+00 2.11e+00 1.62e+05  -6.0 1.02e+01    -  1.02e-01 2.23e-02h  1
  42 -5.9848429e+00 1.55e+00 1.18e+05  -6.0 8.27e+00    -  9.17e-01 2.70e-01h  1
  43 -5.9846383e+00 9.45e-01 7.17e+04  -6.0 1.58e+00  -4.0 9.29e-01 3.94e-01h  1
  44 -5.9876083e+00 2.84e-01 1.71e+04  -6.0 6.63e+00  -4.5 5.40e-01 7.62e-01h  1
  45 -5.9879055e+00 2.44e-01 1.46e+04  -6.0 5.25e+00  -4.9 9.68e-01 1.46e-01h  1
  46 -5.9872024e+00 2.12e-02 1.26e+03  -6.0 1.05e+00  -4.5 1.00e+00 9.14e-01h  1
  47 -5.9872686e+00 7.62e-04 4.18e+01  -6.0 1.55e+00  -5.0 1.00e+00 9.67e-01f  1
  48 -5.9913783e+00 5.20e-01 4.02e+01  -6.0 1.47e+03    -  1.43e-01 3.91e-02h  1
  49 -6.0116430e+00 1.35e+00 4.65e+02  -6.0 1.46e+03    -  1.00e+00 5.35e-01h  1
iter    objective    inf_pr   inf_du lg(mu)  ||d||  lg(rg) alpha_du alpha_pr  ls
  50 -6.0195831e+00 6.32e-01 2.12e+02  -6.0 8.81e+02    -  7.34e-01 6.94e-01h  1
  51 -6.0141431e+00 1.51e-01 9.70e+00  -6.0 4.11e+02    -  1.00e+00 1.00e+00h  1
  52 -6.0137789e+00 2.39e-03 9.56e+00  -6.0 2.22e+01    -  1.00e+00 1.00e+00h  1
  53 -6.0137641e+00 1.06e-06 8.77e-02  -6.0 1.62e-01    -  1.00e+00 1.00e+00h  1
  54 -6.0137637e+00 2.51e-08 5.35e-05  -6.0 2.47e-02    -  1.00e+00 1.00e+00h  1
  55 -6.0137637e+00 4.30e-10 2.24e-11  -6.0 3.41e-07    -  1.00e+00 1.00e+00h  1
  56 -6.0138367e+00 1.29e-01 5.05e+01  -7.5 1.11e+02    -  9.51e-01 7.77e-01h  1
  57 -6.0138394e+00 2.38e-02 8.90e+00  -7.5 2.53e+01    -  1.00e+00 8.83e-01h  1
  58 -6.0138388e+00 1.26e-04 2.36e-03  -7.5 2.66e+00    -  1.00e+00 1.00e+00h  1
  59 -6.0138388e+00 3.35e-10 4.27e-10  -7.5 4.54e-03    -  1.00e+00 1.00e+00h  1
iter    objective    inf_pr   inf_du lg(mu)  ||d||  lg(rg) alpha_du alpha_pr  ls
  60 -6.0138403e+00 1.56e-04 7.17e-01  -9.0 3.53e+00    -  9.26e-01 8.48e-01h  1
  61 -6.0138406e+00 5.04e-06 8.26e-05  -9.0 5.38e-01    -  1.00e+00 1.00e+00f  1
  62 -6.0138406e+00 4.37e-10 3.58e-09  -9.0 1.82e-04    -  1.00e+00 1.00e+00h  1

Number of Iterations....: 62

                                   (scaled)                 (unscaled)
Objective...............:  -4.6983129594022524e+00   -6.0138405880348831e+00
Dual infeasibility......:   3.5760935736054691e-09    4.5773997742150005e-09
Constraint violation....:   4.3688991519571369e-10    4.3688991519571369e-10
Complementarity.........:   1.2169135548361472e-09    1.5576493501902684e-09
Overall NLP error.......:   3.5760935736054691e-09    4.5773997742150005e-09


Number of objective function evaluations             = 72
Number of objective gradient evaluations             = 63
Number of equality constraint evaluations            = 72
Number of inequality constraint evaluations          = 72
Number of equality constraint Jacobian evaluations   = 64
Number of inequality constraint Jacobian evaluations = 64
Number of Lagrangian Hessian evaluations             = 62
Total CPU secs in IPOPT (w/o function evaluations)   =    159.334
Total CPU secs in NLP function evaluations           =      2.375

EXIT: Optimal Solution Found.
